<number of tasks>
89

<cycle time>
83

<task times>
1 28
2 17
3 7
4 10
5 12
6 16
7 13
8 8
9 13
10 24
11 16
12 24
13 12
14 20
15 22
16 22
17 22
18 47
19 6
20 12
21 6
22 22
23 7
24 14
25 68
26 15
27 8
28 74
29 32
30 11
31 18
32 15
33 42
34 27
35 38
36 38
37 26
38 35
39 31
40 8
41 14
42 8
43 8
44 8
45 17
46 7
47 19
48 12
49 24
50 26
51 22
52 14
53 27
54 60
55 4
56 2
57 1
58 9
59 5
60 6
61 7
62 12
63 2
64 11
65 14
66 6
67 21
68 14
69 1
70 6
71 21
72 11
73 14
74 28
75 12
76 11
77 30
78 22
79 14
80 31
81 18
82 16
83 7
84 38
85 8
86 31
87 29
88 12
89 18

<precedence relations>
1,2
2,3
3,4
4,5
4,6
4,7
4,8
4,9
5,10
6,11
7,12
8,18
9,18
10,14
11,12
12,13
13,14
14,15
14,16
15,17
16,54
17,18
18,19
18,20
19,22
20,21
20,28
21,54
22,23
23,24
24,25
25,26
25,27
25,29
26,37
27,33
28,29
29,31
30,54
31,32
32,33
33,34
34,35
35,36
35,37
36,38
37,38
38,39
39,40
39,41
39,42
39,43
40,44
41,53
42,53
43,45
44,52
45,46
46,47
47,48
47,49
49,50
50,51
51,52
52,53
53,68
53,69
53,70
53,71
54,55
55,56
56,57
57,58
57,59
57,60
57,61
57,62
57,63
57,64
57,65
57,66
58,67
59,67
60,67
61,67
62,67
63,67
64,67
65,67
66,67
67,73
68,72
69,72
70,72
71,73
72,78
72,80
73,74
74,75
74,76
75,77
76,81
77,78
78,79
79,81
80,81
81,82
81,84
81,85
82,83
83,86
84,86
85,86
86,87
87,88
87,89

<setup times forward>
1,30:1
2,30:1
3,30:1
4,5:1
4,7:1
4,9:1
4,30:1
5,6:1
5,8:1
5,9:2
5,10:2
6,5:1
6,7:1
6,9:1
6,10:1
6,11:1
6,30:1
7,6:1
7,8:1
7,9:2
7,10:2
8,5:1
8,7:1
8,9:1
8,10:1
8,11:1
8,12:1
8,13:1
8,14:1
8,15:1
8,30:1
9,5:2
9,6:1
9,7:2
9,8:1
9,11:2
9,12:2
9,13:2
9,16:1
9,17:1
9,18:1
9,30:2
10,6:1
10,7:2
10,8:1
10,11:2
10,12:2
10,13:2
10,30:2
11,8:1
11,9:2
11,10:2
12,8:1
12,9:2
12,10:2
13,8:1
13,9:2
13,10:2
13,14:2
14,8:1
14,16:1
14,30:2
15,8:1
15,16:1
15,17:1
15,30:2
16,9:1
16,15:1
16,25:1
16,26:2
16,27:1
16,29:2
16,30:1
16,31:2
16,32:2
16,33:1
16,34:1
16,35:1
16,36:1
16,37:2
16,38:2
16,41:2
16,42:1
16,48:1
16,49:1
16,50:1
16,51:1
16,52:2
16,53:2
16,68:2
16,69:2
16,70:1
16,71:1
16,72:1
16,80:1
17,9:1
17,30:1
18,30:1
19,30:1
19,58:2
19,59:2
19,60:2
19,61:2
19,62:2
19,63:1
19,64:2
19,65:2
19,66:2
19,67:2
20,25:1
20,26:2
20,27:1
20,30:1
21,25:1
21,26:2
21,27:1
21,29:2
21,30:1
21,31:2
21,32:2
21,33:1
21,34:1
21,35:1
21,36:1
21,37:2
21,38:2
21,41:2
21,42:1
21,48:1
21,49:1
21,50:1
21,51:1
21,52:2
21,53:2
21,68:2
21,69:2
21,70:1
21,71:1
21,72:1
21,80:1
22,30:1
22,58:2
22,59:2
22,60:2
22,61:2
22,62:2
22,63:1
22,64:2
22,65:2
22,66:2
22,67:2
23,30:1
23,58:2
23,59:2
23,60:2
23,61:2
23,62:2
23,63:1
23,64:2
23,65:2
23,66:2
23,67:2
24,25:1
24,30:1
24,58:2
24,59:2
24,60:2
24,61:2
24,62:2
24,63:1
24,64:2
24,65:2
24,66:2
24,67:2
25,16:1
25,20:1
25,21:1
25,26:1
25,28:1
25,29:1
25,30:2
25,54:1
25,55:1
25,56:1
25,57:1
25,58:1
25,59:1
25,60:1
25,61:1
25,62:1
25,63:2
25,64:1
25,65:1
25,66:1
25,67:1
26,16:2
26,20:2
26,21:2
26,27:1
26,28:2
26,30:3
26,33:3
26,34:3
26,35:1
26,36:1
26,54:2
26,55:2
26,56:2
26,57:2
26,63:3
27,16:1
27,20:1
27,21:1
27,26:1
27,28:1
27,29:1
27,30:2
27,31:1
27,32:1
27,33:2
27,54:1
27,55:1
27,56:1
27,57:1
27,58:1
27,59:1
27,60:1
27,61:1
27,62:1
27,63:2
27,64:1
27,65:1
27,66:1
27,67:1
28,25:1
28,26:2
28,27:1
28,29:2
28,30:1
28,58:2
28,59:2
28,60:2
28,61:2
28,62:2
28,63:1
28,64:2
28,65:2
28,66:2
28,67:2
29,16:2
29,21:2
29,27:1
29,30:3
29,54:2
29,55:2
29,56:2
29,57:2
29,63:3
30,1:1
30,2:1
30,3:1
30,4:1
30,6:1
30,8:1
30,9:2
30,10:2
30,14:2
30,15:2
30,16:1
30,17:1
30,18:1
30,19:1
30,20:1
30,21:1
30,22:1
30,23:1
30,24:1
30,25:2
30,26:3
30,27:2
30,28:1
30,29:3
30,31:3
30,32:3
30,35:2
30,36:2
30,37:3
30,38:3
30,39:1
30,40:1
30,41:3
30,43:1
30,44:1
30,45:1
30,46:1
30,47:1
30,52:3
30,53:3
30,54:1
30,68:3
30,69:3
31,16:2
31,21:2
31,27:1
31,30:3
31,54:2
31,55:2
31,56:2
31,57:2
31,63:3
32,16:2
32,21:2
32,27:1
32,30:3
32,33:3
32,54:2
32,55:2
32,56:2
32,57:2
32,63:3
33,16:1
33,21:1
33,26:3
33,54:1
33,55:1
33,56:1
33,57:1
33,58:3
33,59:3
33,60:3
33,61:3
33,62:3
33,64:3
33,65:3
33,66:3
33,67:3
34,16:1
34,21:1
34,26:3
34,35:2
34,54:1
34,55:1
34,56:1
34,57:1
34,58:3
34,59:3
34,60:3
34,61:3
34,62:3
34,64:3
34,65:3
34,66:3
34,67:3
35,16:1
35,21:1
35,26:1
35,30:2
35,37:1
35,54:1
35,55:1
35,56:1
35,57:1
35,58:1
35,59:1
35,60:1
35,61:1
35,62:1
35,63:2
35,64:1
35,65:1
35,66:1
35,67:1
36,16:1
36,21:1
36,26:1
36,30:2
36,37:1
36,38:1
36,54:1
36,55:1
36,56:1
36,57:1
36,58:1
36,59:1
36,60:1
36,61:1
36,62:1
36,63:2
36,64:1
36,65:1
36,66:1
36,67:1
37,16:2
37,21:2
37,30:3
37,36:1
37,54:2
37,55:2
37,56:2
37,57:2
37,63:3
38,16:2
38,21:2
38,30:3
38,39:2
38,54:2
38,55:2
38,56:2
38,57:2
38,63:3
39,30:1
39,41:2
39,42:1
39,58:2
39,59:2
39,60:2
39,61:2
39,62:2
39,63:1
39,64:2
39,65:2
39,66:2
39,67:2
40,30:1
40,41:2
40,42:1
40,48:1
40,49:1
40,50:1
40,51:1
40,58:2
40,59:2
40,60:2
40,61:2
40,62:2
40,63:1
40,64:2
40,65:2
40,66:2
40,67:2
41,16:2
41,21:2
41,30:3
41,40:2
41,42:3
41,43:2
41,44:2
41,45:2
41,46:2
41,47:2
41,48:3
41,49:3
41,50:3
41,51:3
41,54:2
41,55:2
41,56:2
41,57:2
41,63:3
42,16:1
42,21:1
42,40:1
42,41:3
42,43:1
42,44:1
42,45:1
42,46:1
42,47:1
42,52:3
42,53:3
42,54:1
42,55:1
42,56:1
42,57:1
42,58:3
42,59:3
42,60:3
42,61:3
42,62:3
42,64:3
42,65:3
42,66:3
42,67:3
43,30:1
43,41:2
43,42:1
43,58:2
43,59:2
43,60:2
43,61:2
43,62:2
43,63:1
43,64:2
43,65:2
43,66:2
43,67:2
44,30:1
44,41:2
44,42:1
44,48:1
44,49:1
44,50:1
44,51:1
44,52:2
44,58:2
44,59:2
44,60:2
44,61:2
44,62:2
44,63:1
44,64:2
44,65:2
44,66:2
44,67:2
45,30:1
45,41:2
45,42:1
45,58:2
45,59:2
45,60:2
45,61:2
45,62:2
45,63:1
45,64:2
45,65:2
45,66:2
45,67:2
46,30:1
46,41:2
46,42:1
46,58:2
46,59:2
46,60:2
46,61:2
46,62:2
46,63:1
46,64:2
46,65:2
46,66:2
46,67:2
47,30:1
47,41:2
47,42:1
47,48:1
47,49:1
47,58:2
47,59:2
47,60:2
47,61:2
47,62:2
47,63:1
47,64:2
47,65:2
47,66:2
47,67:2
48,16:1
48,21:1
48,40:1
48,41:3
48,44:1
48,52:3
48,53:3
48,54:1
48,55:1
48,56:1
48,57:1
48,58:3
48,59:3
48,60:3
48,61:3
48,62:3
48,64:3
48,65:3
48,66:3
48,67:3
48,68:3
48,69:3
48,74:2
48,75:2
48,76:2
48,77:2
48,78:1
48,79:1
48,81:1
48,82:1
48,85:1
49,16:1
49,21:1
49,40:1
49,41:3
49,44:1
49,54:1
49,55:1
49,56:1
49,57:1
49,58:3
49,59:3
49,60:3
49,61:3
49,62:3
49,64:3
49,65:3
49,66:3
49,67:3
50,16:1
50,21:1
50,40:1
50,41:3
50,44:1
50,54:1
50,55:1
50,56:1
50,57:1
50,58:3
50,59:3
50,60:3
50,61:3
50,62:3
50,64:3
50,65:3
50,66:3
50,67:3
51,16:1
51,21:1
51,40:1
51,41:3
51,44:1
51,52:3
51,54:1
51,55:1
51,56:1
51,57:1
51,58:3
51,59:3
51,60:3
51,61:3
51,62:3
51,64:3
51,65:3
51,66:3
51,67:3
52,16:2
52,21:2
52,30:3
52,42:3
52,48:3
52,54:2
52,55:2
52,56:2
52,57:2
52,63:3
53,16:2
53,21:2
53,30:3
53,48:3
53,54:2
53,55:2
53,56:2
53,57:2
53,63:3
53,70:3
53,71:3
54,25:1
54,26:2
54,27:1
54,29:2
54,31:2
54,32:2
54,33:1
54,34:1
54,35:1
54,36:1
54,37:2
54,38:2
54,41:2
54,42:1
54,48:1
54,49:1
54,50:1
54,51:1
54,52:2
54,53:2
54,68:2
54,69:2
54,70:1
54,71:1
54,72:1
54,80:1
55,25:1
55,26:2
55,27:1
55,29:2
55,31:2
55,32:2
55,33:1
55,34:1
55,35:1
55,36:1
55,37:2
55,38:2
55,41:2
55,42:1
55,48:1
55,49:1
55,50:1
55,51:1
55,52:2
55,53:2
55,68:2
55,69:2
55,70:1
55,71:1
55,72:1
55,80:1
56,25:1
56,26:2
56,27:1
56,29:2
56,31:2
56,32:2
56,33:1
56,34:1
56,35:1
56,36:1
56,37:2
56,38:2
56,41:2
56,42:1
56,48:1
56,49:1
56,50:1
56,51:1
56,52:2
56,53:2
56,68:2
56,69:2
56,70:1
56,71:1
56,72:1
56,80:1
57,25:1
57,26:2
57,27:1
57,29:2
57,31:2
57,32:2
57,33:1
57,34:1
57,35:1
57,36:1
57,37:2
57,38:2
57,41:2
57,42:1
57,48:1
57,49:1
57,50:1
57,51:1
57,52:2
57,53:2
57,58:2
57,59:2
57,60:2
57,61:2
57,62:2
57,63:1
57,64:2
57,65:2
57,66:2
57,68:2
57,69:2
57,70:1
57,71:1
57,72:1
57,80:1
58,19:2
58,22:2
58,23:2
58,24:2
58,25:1
58,27:1
58,28:2
58,33:3
58,34:3
58,35:1
58,36:1
58,39:2
58,40:2
58,42:3
58,43:2
58,44:2
58,45:2
58,46:2
58,47:2
58,48:3
58,49:3
58,50:3
58,51:3
58,63:3
58,70:3
58,71:3
58,72:3
58,80:3
59,19:2
59,22:2
59,23:2
59,24:2
59,25:1
59,27:1
59,28:2
59,33:3
59,34:3
59,35:1
59,36:1
59,39:2
59,40:2
59,42:3
59,43:2
59,44:2
59,45:2
59,46:2
59,47:2
59,48:3
59,49:3
59,50:3
59,51:3
59,63:3
59,70:3
59,71:3
59,72:3
59,80:3
60,19:2
60,22:2
60,23:2
60,24:2
60,25:1
60,27:1
60,28:2
60,33:3
60,34:3
60,35:1
60,36:1
60,39:2
60,40:2
60,42:3
60,43:2
60,44:2
60,45:2
60,46:2
60,47:2
60,48:3
60,49:3
60,50:3
60,51:3
60,63:3
60,70:3
60,71:3
60,72:3
60,80:3
61,19:2
61,22:2
61,23:2
61,24:2
61,25:1
61,27:1
61,28:2
61,33:3
61,34:3
61,35:1
61,36:1
61,39:2
61,40:2
61,42:3
61,43:2
61,44:2
61,45:2
61,46:2
61,47:2
61,48:3
61,49:3
61,50:3
61,51:3
61,63:3
61,70:3
61,71:3
61,72:3
61,80:3
62,19:2
62,22:2
62,23:2
62,24:2
62,25:1
62,27:1
62,28:2
62,33:3
62,34:3
62,35:1
62,36:1
62,39:2
62,40:2
62,42:3
62,43:2
62,44:2
62,45:2
62,46:2
62,47:2
62,48:3
62,49:3
62,50:3
62,51:3
62,63:3
62,70:3
62,71:3
62,72:3
62,80:3
63,19:1
63,22:1
63,23:1
63,24:1
63,25:2
63,26:3
63,27:2
63,28:1
63,29:3
63,31:3
63,32:3
63,35:2
63,36:2
63,37:3
63,38:3
63,39:1
63,40:1
63,41:3
63,43:1
63,44:1
63,45:1
63,46:1
63,47:1
63,52:3
63,53:3
63,58:3
63,59:3
63,60:3
63,61:3
63,62:3
63,64:3
63,65:3
63,66:3
63,67:3
63,68:3
63,69:3
64,19:2
64,22:2
64,23:2
64,24:2
64,25:1
64,27:1
64,28:2
64,33:3
64,34:3
64,35:1
64,36:1
64,39:2
64,40:2
64,42:3
64,43:2
64,44:2
64,45:2
64,46:2
64,47:2
64,48:3
64,49:3
64,50:3
64,51:3
64,63:3
64,70:3
64,71:3
64,72:3
64,80:3
65,19:2
65,22:2
65,23:2
65,24:2
65,25:1
65,27:1
65,28:2
65,33:3
65,34:3
65,35:1
65,36:1
65,39:2
65,40:2
65,42:3
65,43:2
65,44:2
65,45:2
65,46:2
65,47:2
65,48:3
65,49:3
65,50:3
65,51:3
65,63:3
65,70:3
65,71:3
65,72:3
65,80:3
66,19:2
66,22:2
66,23:2
66,24:2
66,25:1
66,27:1
66,28:2
66,33:3
66,34:3
66,35:1
66,36:1
66,39:2
66,40:2
66,42:3
66,43:2
66,44:2
66,45:2
66,46:2
66,47:2
66,48:3
66,49:3
66,50:3
66,51:3
66,63:3
66,70:3
66,71:3
66,72:3
66,80:3
67,19:2
67,22:2
67,23:2
67,24:2
67,25:1
67,27:1
67,28:2
67,33:3
67,34:3
67,35:1
67,36:1
67,39:2
67,40:2
67,42:3
67,43:2
67,44:2
67,45:2
67,46:2
67,47:2
67,48:3
67,49:3
67,50:3
67,51:3
67,70:3
67,71:3
67,72:3
67,73:3
67,80:3
68,16:2
68,21:2
68,30:3
68,48:3
68,54:2
68,55:2
68,56:2
68,57:2
68,63:3
68,70:3
68,71:3
68,72:3
68,73:3
68,74:1
68,75:1
68,76:1
68,77:1
69,16:2
69,21:2
69,30:3
69,48:3
69,54:2
69,55:2
69,56:2
69,57:2
69,63:3
69,70:3
69,71:3
69,72:3
69,73:3
69,74:1
69,75:1
69,76:1
69,77:1
70,16:1
70,21:1
70,54:1
70,55:1
70,56:1
70,57:1
70,58:3
70,59:3
70,60:3
70,61:3
70,62:3
70,64:3
70,65:3
70,66:3
70,67:3
70,68:3
70,69:3
70,74:2
70,75:2
70,76:2
70,77:2
71,16:1
71,21:1
71,54:1
71,55:1
71,56:1
71,57:1
71,58:3
71,59:3
71,60:3
71,61:3
71,62:3
71,64:3
71,65:3
71,66:3
71,67:3
71,68:3
71,69:3
72,16:1
72,21:1
72,54:1
72,55:1
72,56:1
72,57:1
72,58:3
72,59:3
72,60:3
72,61:3
72,62:3
72,64:3
72,65:3
72,66:3
72,67:3
72,74:2
72,75:2
72,76:2
72,77:2
72,78:1
73,68:3
73,69:3
73,74:2
74,48:2
74,68:1
74,69:1
74,70:2
74,72:2
74,80:2
75,48:2
75,68:1
75,69:1
75,70:2
75,72:2
75,80:2
76,48:2
76,68:1
76,69:1
76,70:2
76,72:2
76,78:1
76,79:1
76,80:2
76,81:1
77,48:2
77,68:1
77,69:1
77,70:2
77,72:2
77,78:1
77,80:2
78,48:1
78,76:1
78,80:1
79,48:1
79,76:1
79,80:1
80,16:1
80,21:1
80,54:1
80,55:1
80,56:1
80,57:1
80,58:3
80,59:3
80,60:3
80,61:3
80,62:3
80,64:3
80,65:3
80,66:3
80,67:3
80,74:2
80,75:2
80,76:2
80,77:2
80,78:1
80,79:1
80,81:1
81,48:1
81,84:1
82,48:1
82,83:1
82,84:1
83,85:1
84,82:1
84,85:1
85,48:1
85,83:1
85,84:1
85,86:1

<setup times backward>
5,1:1
5,2:1
5,3:1
5,4:1
5,6:1
5,8:1
5,9:2
6,9:1
6,10:1
7,1:1
7,2:1
7,3:1
7,4:1
7,6:1
7,8:1
7,9:2
7,10:2
8,9:1
8,10:1
8,14:1
8,15:1
11,1:1
11,2:1
11,3:1
11,4:1
11,6:1
11,8:1
11,9:2
11,10:2
12,1:1
12,2:1
12,3:1
12,4:1
12,6:1
12,8:1
12,9:2
12,10:2
13,1:1
13,2:1
13,3:1
13,4:1
13,6:1
13,8:1
13,9:2
13,10:2
16,9:1
16,10:1
16,14:1
16,15:1
16,25:1
16,26:2
16,27:1
16,29:2
16,31:2
16,32:2
16,35:1
16,36:1
16,37:2
16,38:2
16,41:2
16,52:2
16,53:2
16,68:2
16,69:2
17,9:1
17,10:1
17,14:1
17,15:1
18,9:1
18,10:1
18,14:1
18,15:1
19,9:1
19,10:1
19,14:1
19,15:1
19,58:2
19,59:2
19,60:2
19,61:2
19,62:2
19,64:2
19,65:2
19,66:2
19,67:2
20,9:1
20,10:1
20,14:1
20,15:1
20,25:1
20,26:2
20,27:1
21,9:1
21,10:1
21,14:1
21,15:1
21,25:1
21,26:2
21,27:1
21,29:2
21,31:2
21,32:2
21,35:1
21,36:1
21,37:2
21,38:2
21,41:2
21,52:2
21,53:2
21,68:2
21,69:2
22,9:1
22,10:1
22,14:1
22,15:1
22,58:2
22,59:2
22,60:2
22,61:2
22,62:2
22,64:2
22,65:2
22,66:2
22,67:2
23,9:1
23,10:1
23,14:1
23,15:1
23,58:2
23,59:2
23,60:2
23,61:2
23,62:2
23,64:2
23,65:2
23,66:2
23,67:2
24,9:1
24,10:1
24,14:1
24,15:1
24,58:2
24,59:2
24,60:2
24,61:2
24,62:2
24,64:2
24,65:2
24,66:2
24,67:2
25,58:1
25,59:1
25,60:1
25,61:1
25,62:1
25,64:1
25,65:1
25,66:1
25,67:1
27,26:1
27,29:1
27,31:1
27,32:1
27,58:1
27,59:1
27,60:1
27,61:1
27,62:1
27,64:1
27,65:1
27,66:1
27,67:1
28,9:1
28,10:1
28,14:1
28,15:1
28,25:1
28,26:2
28,27:1
28,58:2
28,59:2
28,60:2
28,61:2
28,62:2
28,64:2
28,65:2
28,66:2
28,67:2
30,1:1
30,2:1
30,3:1
30,4:1
30,6:1
30,8:1
30,9:2
30,10:2
30,14:2
30,15:2
30,16:1
30,17:1
30,18:1
30,19:1
30,20:1
30,21:1
30,22:1
30,23:1
30,24:1
30,25:2
30,26:3
30,27:2
30,28:1
30,29:3
30,31:3
30,32:3
30,35:2
30,36:2
30,37:3
30,38:3
30,39:1
30,40:1
30,41:3
30,43:1
30,44:1
30,45:1
30,46:1
30,47:1
30,52:3
30,53:3
30,68:3
30,69:3
33,1:1
33,2:1
33,3:1
33,4:1
33,6:1
33,8:1
33,9:2
33,10:2
33,14:2
33,15:2
33,16:1
33,17:1
33,18:1
33,19:1
33,20:1
33,21:1
33,22:1
33,23:1
33,24:1
33,25:2
33,26:3
33,27:2
33,28:1
33,29:3
33,31:3
33,32:3
33,54:1
33,55:1
33,56:1
33,57:1
33,58:3
33,59:3
33,60:3
33,61:3
33,62:3
33,64:3
33,65:3
33,66:3
33,67:3
34,1:1
34,2:1
34,3:1
34,4:1
34,6:1
34,8:1
34,9:2
34,10:2
34,14:2
34,15:2
34,16:1
34,17:1
34,18:1
34,19:1
34,20:1
34,21:1
34,22:1
34,23:1
34,24:1
34,25:2
34,26:3
34,27:2
34,28:1
34,29:3
34,31:3
34,32:3
34,54:1
34,55:1
34,56:1
34,57:1
34,58:3
34,59:3
34,60:3
34,61:3
34,62:3
34,64:3
34,65:3
34,66:3
34,67:3
35,26:1
35,29:1
35,31:1
35,32:1
35,58:1
35,59:1
35,60:1
35,61:1
35,62:1
35,64:1
35,65:1
35,66:1
35,67:1
36,26:1
36,29:1
36,31:1
36,32:1
36,37:1
36,58:1
36,59:1
36,60:1
36,61:1
36,62:1
36,64:1
36,65:1
36,66:1
36,67:1
39,9:1
39,10:1
39,14:1
39,15:1
39,25:1
39,26:2
39,27:1
39,29:2
39,31:2
39,32:2
39,35:1
39,36:1
39,37:2
39,38:2
39,58:2
39,59:2
39,60:2
39,61:2
39,62:2
39,64:2
39,65:2
39,66:2
39,67:2
40,9:1
40,10:1
40,14:1
40,15:1
40,25:1
40,26:2
40,27:1
40,29:2
40,31:2
40,32:2
40,35:1
40,36:1
40,37:2
40,38:2
40,41:2
40,58:2
40,59:2
40,60:2
40,61:2
40,62:2
40,64:2
40,65:2
40,66:2
40,67:2
42,1:1
42,2:1
42,3:1
42,4:1
42,6:1
42,8:1
42,9:2
42,10:2
42,14:2
42,15:2
42,16:1
42,17:1
42,18:1
42,19:1
42,20:1
42,21:1
42,22:1
42,23:1
42,24:1
42,25:2
42,26:3
42,27:2
42,28:1
42,29:3
42,31:3
42,32:3
42,35:2
42,36:2
42,37:3
42,38:3
42,39:1
42,40:1
42,41:3
42,43:1
42,44:1
42,45:1
42,46:1
42,47:1
42,52:3
42,54:1
42,55:1
42,56:1
42,57:1
42,58:3
42,59:3
42,60:3
42,61:3
42,62:3
42,64:3
42,65:3
42,66:3
42,67:3
43,9:1
43,10:1
43,14:1
43,15:1
43,25:1
43,26:2
43,27:1
43,29:2
43,31:2
43,32:2
43,35:1
43,36:1
43,37:2
43,38:2
43,41:2
43,58:2
43,59:2
43,60:2
43,61:2
43,62:2
43,64:2
43,65:2
43,66:2
43,67:2
44,9:1
44,10:1
44,14:1
44,15:1
44,25:1
44,26:2
44,27:1
44,29:2
44,31:2
44,32:2
44,35:1
44,36:1
44,37:2
44,38:2
44,41:2
44,58:2
44,59:2
44,60:2
44,61:2
44,62:2
44,64:2
44,65:2
44,66:2
44,67:2
45,9:1
45,10:1
45,14:1
45,15:1
45,25:1
45,26:2
45,27:1
45,29:2
45,31:2
45,32:2
45,35:1
45,36:1
45,37:2
45,38:2
45,41:2
45,58:2
45,59:2
45,60:2
45,61:2
45,62:2
45,64:2
45,65:2
45,66:2
45,67:2
46,9:1
46,10:1
46,14:1
46,15:1
46,25:1
46,26:2
46,27:1
46,29:2
46,31:2
46,32:2
46,35:1
46,36:1
46,37:2
46,38:2
46,41:2
46,58:2
46,59:2
46,60:2
46,61:2
46,62:2
46,64:2
46,65:2
46,66:2
46,67:2
47,9:1
47,10:1
47,14:1
47,15:1
47,25:1
47,26:2
47,27:1
47,29:2
47,31:2
47,32:2
47,35:1
47,36:1
47,37:2
47,38:2
47,41:2
47,58:2
47,59:2
47,60:2
47,61:2
47,62:2
47,64:2
47,65:2
47,66:2
47,67:2
48,1:1
48,2:1
48,3:1
48,4:1
48,6:1
48,8:1
48,9:2
48,10:2
48,14:2
48,15:2
48,16:1
48,17:1
48,18:1
48,19:1
48,20:1
48,21:1
48,22:1
48,23:1
48,24:1
48,25:2
48,26:3
48,27:2
48,28:1
48,29:3
48,31:3
48,32:3
48,35:2
48,36:2
48,37:3
48,38:3
48,39:1
48,40:1
48,41:3
48,43:1
48,44:1
48,45:1
48,46:1
48,47:1
48,52:3
48,53:3
48,54:1
48,55:1
48,56:1
48,57:1
48,58:3
48,59:3
48,60:3
48,61:3
48,62:3
48,64:3
48,65:3
48,66:3
48,67:3
48,68:3
48,69:3
48,74:2
48,75:2
48,76:2
48,77:2
48,78:1
48,79:1
48,81:1
48,82:1
48,85:1
49,1:1
49,2:1
49,3:1
49,4:1
49,6:1
49,8:1
49,9:2
49,10:2
49,14:2
49,15:2
49,16:1
49,17:1
49,18:1
49,19:1
49,20:1
49,21:1
49,22:1
49,23:1
49,24:1
49,25:2
49,26:3
49,27:2
49,28:1
49,29:3
49,31:3
49,32:3
49,35:2
49,36:2
49,37:3
49,38:3
49,39:1
49,40:1
49,41:3
49,43:1
49,44:1
49,45:1
49,46:1
49,47:1
49,54:1
49,55:1
49,56:1
49,57:1
49,58:3
49,59:3
49,60:3
49,61:3
49,62:3
49,64:3
49,65:3
49,66:3
49,67:3
50,1:1
50,2:1
50,3:1
50,4:1
50,6:1
50,8:1
50,9:2
50,10:2
50,14:2
50,15:2
50,16:1
50,17:1
50,18:1
50,19:1
50,20:1
50,21:1
50,22:1
50,23:1
50,24:1
50,25:2
50,26:3
50,27:2
50,28:1
50,29:3
50,31:3
50,32:3
50,35:2
50,36:2
50,37:3
50,38:3
50,39:1
50,40:1
50,41:3
50,43:1
50,44:1
50,45:1
50,46:1
50,47:1
50,54:1
50,55:1
50,56:1
50,57:1
50,58:3
50,59:3
50,60:3
50,61:3
50,62:3
50,64:3
50,65:3
50,66:3
50,67:3
51,1:1
51,2:1
51,3:1
51,4:1
51,6:1
51,8:1
51,9:2
51,10:2
51,14:2
51,15:2
51,16:1
51,17:1
51,18:1
51,19:1
51,20:1
51,21:1
51,22:1
51,23:1
51,24:1
51,25:2
51,26:3
51,27:2
51,28:1
51,29:3
51,31:3
51,32:3
51,35:2
51,36:2
51,37:3
51,38:3
51,39:1
51,40:1
51,41:3
51,43:1
51,44:1
51,45:1
51,46:1
51,47:1
51,54:1
51,55:1
51,56:1
51,57:1
51,58:3
51,59:3
51,60:3
51,61:3
51,62:3
51,64:3
51,65:3
51,66:3
51,67:3
54,9:1
54,10:1
54,14:1
54,15:1
54,25:1
54,26:2
54,27:1
54,29:2
54,31:2
54,32:2
54,35:1
54,36:1
54,37:2
54,38:2
54,41:2
54,52:2
54,53:2
54,68:2
54,69:2
55,9:1
55,10:1
55,14:1
55,15:1
55,25:1
55,26:2
55,27:1
55,29:2
55,31:2
55,32:2
55,35:1
55,36:1
55,37:2
55,38:2
55,41:2
55,52:2
55,53:2
55,68:2
55,69:2
56,9:1
56,10:1
56,14:1
56,15:1
56,25:1
56,26:2
56,27:1
56,29:2
56,31:2
56,32:2
56,35:1
56,36:1
56,37:2
56,38:2
56,41:2
56,52:2
56,53:2
56,68:2
56,69:2
57,9:1
57,10:1
57,14:1
57,15:1
57,25:1
57,26:2
57,27:1
57,29:2
57,31:2
57,32:2
57,35:1
57,36:1
57,37:2
57,38:2
57,41:2
57,52:2
57,53:2
57,68:2
57,69:2
63,1:1
63,2:1
63,3:1
63,4:1
63,6:1
63,8:1
63,9:2
63,10:2
63,14:2
63,15:2
63,16:1
63,17:1
63,18:1
63,19:1
63,20:1
63,21:1
63,22:1
63,23:1
63,24:1
63,25:2
63,26:3
63,27:2
63,28:1
63,29:3
63,31:3
63,32:3
63,35:2
63,36:2
63,37:3
63,38:3
63,39:1
63,40:1
63,41:3
63,43:1
63,44:1
63,45:1
63,46:1
63,47:1
63,52:3
63,53:3
63,54:1
63,55:1
63,56:1
63,57:1
63,58:3
63,59:3
63,60:3
63,61:3
63,62:3
63,64:3
63,65:3
63,66:3
63,68:3
63,69:3
70,1:1
70,2:1
70,3:1
70,4:1
70,6:1
70,8:1
70,9:2
70,10:2
70,14:2
70,15:2
70,16:1
70,17:1
70,18:1
70,19:1
70,20:1
70,21:1
70,22:1
70,23:1
70,24:1
70,25:2
70,26:3
70,27:2
70,28:1
70,29:3
70,31:3
70,32:3
70,35:2
70,36:2
70,37:3
70,38:3
70,39:1
70,40:1
70,41:3
70,43:1
70,44:1
70,45:1
70,46:1
70,47:1
70,52:3
70,53:3
70,54:1
70,55:1
70,56:1
70,57:1
70,58:3
70,59:3
70,60:3
70,61:3
70,62:3
70,64:3
70,65:3
70,66:3
70,67:3
70,68:3
70,69:3
70,74:2
70,75:2
70,76:2
70,77:2
71,1:1
71,2:1
71,3:1
71,4:1
71,6:1
71,8:1
71,9:2
71,10:2
71,14:2
71,15:2
71,16:1
71,17:1
71,18:1
71,19:1
71,20:1
71,21:1
71,22:1
71,23:1
71,24:1
71,25:2
71,26:3
71,27:2
71,28:1
71,29:3
71,31:3
71,32:3
71,35:2
71,36:2
71,37:3
71,38:3
71,39:1
71,40:1
71,41:3
71,43:1
71,44:1
71,45:1
71,46:1
71,47:1
71,52:3
71,53:3
71,54:1
71,55:1
71,56:1
71,57:1
71,58:3
71,59:3
71,60:3
71,61:3
71,62:3
71,64:3
71,65:3
71,66:3
71,67:3
71,68:3
71,69:3
72,1:1
72,2:1
72,3:1
72,4:1
72,6:1
72,8:1
72,9:2
72,10:2
72,14:2
72,15:2
72,16:1
72,17:1
72,18:1
72,19:1
72,20:1
72,21:1
72,22:1
72,23:1
72,24:1
72,25:2
72,26:3
72,27:2
72,28:1
72,29:3
72,31:3
72,32:3
72,35:2
72,36:2
72,37:3
72,38:3
72,39:1
72,40:1
72,41:3
72,43:1
72,44:1
72,45:1
72,46:1
72,47:1
72,52:3
72,53:3
72,54:1
72,55:1
72,56:1
72,57:1
72,58:3
72,59:3
72,60:3
72,61:3
72,62:3
72,64:3
72,65:3
72,66:3
72,67:3
72,68:3
72,69:3
72,74:2
72,75:2
72,76:2
72,77:2
73,1:1
73,2:1
73,3:1
73,4:1
73,6:1
73,8:1
73,9:2
73,10:2
73,14:2
73,15:2
73,16:1
73,17:1
73,18:1
73,19:1
73,20:1
73,21:1
73,22:1
73,23:1
73,24:1
73,25:2
73,26:3
73,27:2
73,28:1
73,29:3
73,31:3
73,32:3
73,35:2
73,36:2
73,37:3
73,38:3
73,39:1
73,40:1
73,41:3
73,43:1
73,44:1
73,45:1
73,46:1
73,47:1
73,52:3
73,53:3
73,54:1
73,55:1
73,56:1
73,57:1
73,58:3
73,59:3
73,60:3
73,61:3
73,62:3
73,64:3
73,65:3
73,66:3
73,67:3
73,68:3
73,69:3
74,26:1
74,29:1
74,31:1
74,32:1
74,37:1
74,38:1
74,41:1
74,52:1
74,53:1
74,58:1
74,59:1
74,60:1
74,61:1
74,62:1
74,64:1
74,65:1
74,66:1
74,67:1
74,68:1
74,69:1
75,26:1
75,29:1
75,31:1
75,32:1
75,37:1
75,38:1
75,41:1
75,52:1
75,53:1
75,58:1
75,59:1
75,60:1
75,61:1
75,62:1
75,64:1
75,65:1
75,66:1
75,67:1
75,68:1
75,69:1
76,26:1
76,29:1
76,31:1
76,32:1
76,37:1
76,38:1
76,41:1
76,52:1
76,53:1
76,58:1
76,59:1
76,60:1
76,61:1
76,62:1
76,64:1
76,65:1
76,66:1
76,67:1
76,68:1
76,69:1
77,26:1
77,29:1
77,31:1
77,32:1
77,37:1
77,38:1
77,41:1
77,52:1
77,53:1
77,58:1
77,59:1
77,60:1
77,61:1
77,62:1
77,64:1
77,65:1
77,66:1
77,67:1
77,68:1
77,69:1
78,9:1
78,10:1
78,14:1
78,15:1
78,25:1
78,26:2
78,27:1
78,29:2
78,31:2
78,32:2
78,35:1
78,36:1
78,37:2
78,38:2
78,41:2
78,52:2
78,53:2
78,58:2
78,59:2
78,60:2
78,61:2
78,62:2
78,64:2
78,65:2
78,66:2
78,67:2
78,68:2
78,69:2
78,74:1
78,75:1
78,76:1
78,77:1
79,9:1
79,10:1
79,14:1
79,15:1
79,25:1
79,26:2
79,27:1
79,29:2
79,31:2
79,32:2
79,35:1
79,36:1
79,37:2
79,38:2
79,41:2
79,52:2
79,53:2
79,58:2
79,59:2
79,60:2
79,61:2
79,62:2
79,64:2
79,65:2
79,66:2
79,67:2
79,68:2
79,69:2
79,74:1
79,75:1
79,76:1
79,77:1
80,1:1
80,2:1
80,3:1
80,4:1
80,6:1
80,8:1
80,9:2
80,10:2
80,14:2
80,15:2
80,16:1
80,17:1
80,18:1
80,19:1
80,20:1
80,21:1
80,22:1
80,23:1
80,24:1
80,25:2
80,26:3
80,27:2
80,28:1
80,29:3
80,31:3
80,32:3
80,35:2
80,36:2
80,37:3
80,38:3
80,39:1
80,40:1
80,41:3
80,43:1
80,44:1
80,45:1
80,46:1
80,47:1
80,52:3
80,53:3
80,54:1
80,55:1
80,56:1
80,57:1
80,58:3
80,59:3
80,60:3
80,61:3
80,62:3
80,64:3
80,65:3
80,66:3
80,67:3
80,68:3
80,69:3
80,74:2
80,75:2
80,76:2
80,77:2
80,78:1
80,79:1
81,9:1
81,10:1
81,14:1
81,15:1
81,25:1
81,26:2
81,27:1
81,29:2
81,31:2
81,32:2
81,35:1
81,36:1
81,37:2
81,38:2
81,41:2
81,52:2
81,53:2
81,58:2
81,59:2
81,60:2
81,61:2
81,62:2
81,64:2
81,65:2
81,66:2
81,67:2
81,68:2
81,69:2
81,74:1
81,75:1
81,76:1
81,77:1
82,9:1
82,10:1
82,14:1
82,15:1
82,25:1
82,26:2
82,27:1
82,29:2
82,31:2
82,32:2
82,35:1
82,36:1
82,37:2
82,38:2
82,41:2
82,52:2
82,53:2
82,58:2
82,59:2
82,60:2
82,61:2
82,62:2
82,64:2
82,65:2
82,66:2
82,67:2
82,68:2
82,69:2
82,74:1
82,75:1
82,76:1
82,77:1
83,1:1
83,2:1
83,3:1
83,4:1
83,6:1
83,8:1
83,9:2
83,10:2
83,14:2
83,15:2
83,16:1
83,17:1
83,18:1
83,19:1
83,20:1
83,21:1
83,22:1
83,23:1
83,24:1
83,25:2
83,26:3
83,27:2
83,28:1
83,29:3
83,31:3
83,32:3
83,35:2
83,36:2
83,37:3
83,38:3
83,39:1
83,40:1
83,41:3
83,43:1
83,44:1
83,45:1
83,46:1
83,47:1
83,52:3
83,53:3
83,54:1
83,55:1
83,56:1
83,57:1
83,58:3
83,59:3
83,60:3
83,61:3
83,62:3
83,64:3
83,65:3
83,66:3
83,67:3
83,68:3
83,69:3
83,74:2
83,75:2
83,76:2
83,77:2
83,78:1
83,79:1
83,81:1
83,82:1
83,85:1
84,1:1
84,2:1
84,3:1
84,4:1
84,6:1
84,8:1
84,9:2
84,10:2
84,14:2
84,15:2
84,16:1
84,17:1
84,18:1
84,19:1
84,20:1
84,21:1
84,22:1
84,23:1
84,24:1
84,25:2
84,26:3
84,27:2
84,28:1
84,29:3
84,31:3
84,32:3
84,35:2
84,36:2
84,37:3
84,38:3
84,39:1
84,40:1
84,41:3
84,43:1
84,44:1
84,45:1
84,46:1
84,47:1
84,52:3
84,53:3
84,54:1
84,55:1
84,56:1
84,57:1
84,58:3
84,59:3
84,60:3
84,61:3
84,62:3
84,64:3
84,65:3
84,66:3
84,67:3
84,68:3
84,69:3
84,74:2
84,75:2
84,76:2
84,77:2
84,78:1
84,79:1
84,81:1
84,82:1
84,85:1
85,9:1
85,10:1
85,14:1
85,15:1
85,25:1
85,26:2
85,27:1
85,29:2
85,31:2
85,32:2
85,35:1
85,36:1
85,37:2
85,38:2
85,41:2
85,52:2
85,53:2
85,58:2
85,59:2
85,60:2
85,61:2
85,62:2
85,64:2
85,65:2
85,66:2
85,67:2
85,68:2
85,69:2
85,74:1
85,75:1
85,76:1
85,77:1
86,1:1
86,2:1
86,3:1
86,4:1
86,6:1
86,8:1
86,9:2
86,10:2
86,14:2
86,15:2
86,16:1
86,17:1
86,18:1
86,19:1
86,20:1
86,21:1
86,22:1
86,23:1
86,24:1
86,25:2
86,26:3
86,27:2
86,28:1
86,29:3
86,31:3
86,32:3
86,35:2
86,36:2
86,37:3
86,38:3
86,39:1
86,40:1
86,41:3
86,43:1
86,44:1
86,45:1
86,46:1
86,47:1
86,52:3
86,53:3
86,54:1
86,55:1
86,56:1
86,57:1
86,58:3
86,59:3
86,60:3
86,61:3
86,62:3
86,64:3
86,65:3
86,66:3
86,67:3
86,68:3
86,69:3
86,74:2
86,75:2
86,76:2
86,77:2
86,78:1
86,79:1
86,81:1
86,82:1
86,85:1
87,1:1
87,2:1
87,3:1
87,4:1
87,6:1
87,8:1
87,9:2
87,10:2
87,14:2
87,15:2
87,16:1
87,17:1
87,18:1
87,19:1
87,20:1
87,21:1
87,22:1
87,23:1
87,24:1
87,25:2
87,26:3
87,27:2
87,28:1
87,29:3
87,31:3
87,32:3
87,35:2
87,36:2
87,37:3
87,38:3
87,39:1
87,40:1
87,41:3
87,43:1
87,44:1
87,45:1
87,46:1
87,47:1
87,52:3
87,53:3
87,54:1
87,55:1
87,56:1
87,57:1
87,58:3
87,59:3
87,60:3
87,61:3
87,62:3
87,64:3
87,65:3
87,66:3
87,67:3
87,68:3
87,69:3
87,74:2
87,75:2
87,76:2
87,77:2
87,78:1
87,79:1
87,81:1
87,82:1
87,85:1
88,1:1
88,2:1
88,3:1
88,4:1
88,6:1
88,8:1
88,9:2
88,10:2
88,14:2
88,15:2
88,16:1
88,17:1
88,18:1
88,19:1
88,20:1
88,21:1
88,22:1
88,23:1
88,24:1
88,25:2
88,26:3
88,27:2
88,28:1
88,29:3
88,31:3
88,32:3
88,35:2
88,36:2
88,37:3
88,38:3
88,39:1
88,40:1
88,41:3
88,43:1
88,44:1
88,45:1
88,46:1
88,47:1
88,52:3
88,53:3
88,54:1
88,55:1
88,56:1
88,57:1
88,58:3
88,59:3
88,60:3
88,61:3
88,62:3
88,64:3
88,65:3
88,66:3
88,67:3
88,68:3
88,69:3
88,74:2
88,75:2
88,76:2
88,77:2
88,78:1
88,79:1
88,81:1
88,82:1
88,85:1
89,1:1
89,2:1
89,3:1
89,4:1
89,6:1
89,8:1
89,9:2
89,10:2
89,14:2
89,15:2
89,16:1
89,17:1
89,18:1
89,19:1
89,20:1
89,21:1
89,22:1
89,23:1
89,24:1
89,25:2
89,26:3
89,27:2
89,28:1
89,29:3
89,31:3
89,32:3
89,35:2
89,36:2
89,37:3
89,38:3
89,39:1
89,40:1
89,41:3
89,43:1
89,44:1
89,45:1
89,46:1
89,47:1
89,52:3
89,53:3
89,54:1
89,55:1
89,56:1
89,57:1
89,58:3
89,59:3
89,60:3
89,61:3
89,62:3
89,64:3
89,65:3
89,66:3
89,67:3
89,68:3
89,69:3
89,74:2
89,75:2
89,76:2
89,77:2
89,78:1
89,79:1
89,81:1
89,82:1
89,85:1

<end>

<optimal SALBP-1 value>
21


<rand seed>
467321153

<Lower Bounds>
Lm1=20
Lms1=20
Lm2=5
Lm3=10
Lm4=20
Best=20

<Optimal Stations (Iterations: 10)>
24
